nP = 3;
nT = 8;
nC1 = 8;
nC2 = 22;
nA = 60;
nD = 3;

arc_from = [3, 2, 1, 2, 2, 1, 2, 3, 2, 2, 3, 3, 2, 4, 4, 5, 5, 5, 6, 7, 7, 8, 8, 9, 10, 10, 11, 16, 17, 16, 16, 12, 15, 13, 15, 18, 19, 15, 19, 19, 19, 12, 13, 16, 15, 18, 15, 16, 17, 12, 12, 13, 13, 14, 14, 15, 15, 17, 18, 19];
arc_to = [4, 4, 5, 5, 6, 7, 7, 8, 8, 9, 10, 11, 11, 18, 19, 16, 14, 13, 16, 15, 18, 18, 14, 19, 14, 15, 17, 20, 21, 22, 23, 24, 25, 26, 27, 28, 29, 30, 31, 32, 33, 34, 35, 36, 37, 38, 39, 40, 41, 37, 36, 33, 37, 31, 34, 29, 28, 30, 37, 26];

supply = [354.27, 354.27, 354.27, 0.00, 0.00, 0.00, 0.00, 0.00, 0.00, 0.00, 0.00, 0.00, 0.00, 0.00, 0.00, 0.00, 0.00, 0.00, 0.00, 0.00, 0.00, 0.00, 0.00, 0.00, 0.00, 0.00, 0.00, 0.00, 0.00, 0.00, 0.00, 0.00, 0.00, 0.00, 0.00, 0.00, 0.00, 0.00, 0.00, 0.00, 0.00];
demand = [0.00, 0.00, 0.00, 0.00, 0.00, 0.00, 0.00, 0.00, 0.00, 0.00, 0.00, 22.61, 24.09, 23.79, 29.87, 28.69, 24.82, 30.21, 30.96, 28.03, 29.54, 22.73, 30.30, 31.87, 22.66, 21.77, 24.85, 28.78, 31.80, 25.76, 29.18, 22.31, 28.92, 28.24, 22.59, 29.80, 30.64, 27.95, 22.80, 32.07, 29.91];

max_capacity = [795, 1414, 3181];

install_cost = array2d(1..nA, 1..nD, [
  20, 24, 32,
  50, 62, 78,
  20, 24, 32,
  50, 62, 78,
  20, 24, 32,
  50, 62, 78,
  20, 24, 32,
  50, 62, 78,
  20, 24, 32,
  50, 62, 78,
  20, 24, 32,
  50, 62, 78,
  20, 24, 32,
  50, 62, 78,
  20, 24, 32,
  50, 62, 78,
  20, 24, 32,
  50, 62, 78,
  20, 24, 32,
  50, 62, 78,
  20, 24, 32,
  50, 62, 78,
  20, 24, 32,
  50, 62, 78,
  20, 24, 32,
  50, 62, 78,
  20, 24, 32,
  50, 62, 78,
  20, 24, 32,
  50, 62, 78,
  20, 24, 32,
  50, 62, 78,
  20, 24, 32,
  50, 62, 78,
  20, 24, 32,
  50, 62, 78,
  20, 24, 32,
  50, 62, 78,
  20, 24, 32,
  50, 62, 78,
  20, 24, 32,
  50, 62, 78,
  20, 24, 32,
  50, 62, 78,
  20, 24, 32,
  50, 62, 78,
  20, 24, 32,
  50, 62, 78,
  20, 24, 32,
  50, 62, 78,
  20, 24, 32,
  50, 62, 78,
  20, 24, 32,
  50, 62, 78,
  20, 24, 32,
  50, 62, 78,
  20, 24, 32,
  50, 62, 78,
  20, 24, 32,
  50, 62, 78
]);

trans_cost = [5.16, 7.12, 6.92, 5.97, 6.18, 7.92, 5.11, 6.82, 5.70, 5.67, 7.65, 7.24, 7.22, 7.96, 6.03, 7.02, 5.53, 6.49, 5.80, 6.15, 6.89, 4.77, 9.14, 4.49, 4.18, 7.74, 7.19, 6.94, 6.94, 5.98, 4.65, 6.11, 4.98, 7.46, 5.78, 4.76, 5.52, 6.62, 5.15, 4.77, 6.37, 6.37, 5.24, 5.29, 6.35, 3.83, 3.89, 4.92, 5.68, 6.47, 8.21, 7.29, 5.76, 5.97, 4.50, 5.97, 5.57, 6.48, 4.76, 6.78];

% Metadata: {'tamaño': 'medianas', 'numero': 2, 'grupo': 5, 'demanda_total': 817.54, 'suministro_total': 1062.81, 'factor_holgura': 1.3, 'num_arcos': 60, 'conectividad': {'plantas_tanques': 13, 'tanques_transbordo': 14, 'transbordo_finales': 33}}
% Total supply: 1062.81
% Total demand: 817.54
% Balance factor: 1.30
